50 10265

134
493
194
107
472
416
452
241
268
193
116
244
458
473
415
272
406
265
241
275
73
488
407
22
269
116
415
220
54
33
249
16
210
268
495
54
213
195
43
188
489
499
41
45
302
13
404
250
476
150
